25
10000 10000
2658 6887
2890 9397
738 8524
3697 9685
2667 7692
5833 6056
563 1859
4185 2074
4765 5108
2471 5394
8452 4900
9592 7467
98 2924
4316 5637
286 651
5320 3096
7323 5449
9072 525
7235 328
387 4576
1145 2163
3377 4792
1130 2697
234 2859
3444 8827
